instances/knapsack/discrete_knapsack_uncertainty/knapsack_90_16.lp
\ Model knapsack_90_16
\ LP format - for model browsing. Use MPS format to capture full model detail.
\ Signature: 0xc29ff4c0dcb79651
Minimize
  - 37 x[0] - 37 x[1] - 91 x[2] - 7 x[3] - 60 x[4] - 8 x[5] - 40 x[6]
   - 86 x[7] - 25 x[8] - 5 x[9] - 70 x[10] - 86 x[11] - 82 x[12] - 81 x[13]
   - 18 x[14] - 95 x[15] - 77 x[16] - 41 x[17] - 49 x[18] - 64 x[19]
   - 52 x[20] - 70 x[21] - 27 x[22] - 51 x[23] - 48 x[24] - 33 x[25]
   - 79 x[26] - 70 x[27] - 81 x[28] - 55 x[29] - 60 x[30] - 87 x[31]
   - 87 x[32] - 34 x[33] - 58 x[34] - 76 x[35] - 24 x[36] - 38 x[37]
   - 17 x[38] - 34 x[39] - 39 x[40] - 96 x[41] - 24 x[42] - 82 x[43]
   - 45 x[44] - 74 x[45] - 27 x[46] - 3 x[47] - 95 x[48] - 32 x[49]
   - 10 x[50] - 9 x[51] - 22 x[52] - 40 x[53] - 51 x[54] - 65 x[55]
   - 13 x[56] - 23 x[57] - 19 x[58] - 38 x[59] - 79 x[60] - 81 x[61]
   - 100 x[62] - 56 x[63] - 21 x[64] - 24 x[65] - 48 x[66] - 92 x[67]
   - 91 x[68] - 52 x[69] - 48 x[70] - 70 x[71] - 28 x[72] - 44 x[73]
   - 37 x[74] - 41 x[75] - 89 x[76] - 8 x[77] - 15 x[78] - 26 x[79]
   - 50 x[80] - 73 x[81] - 40 x[82] - 17 x[83] - 64 x[84] - 27 x[85]
   - 45 x[86] - 18 x[87] - 67 x[88] - 93 x[89]
Subject To
 primal_upper: 44 x[0] + 29 x[1] + 7 x[2] + 32 x[3] + 53 x[4] + 6 x[5]
   + 38 x[6] + 20 x[7] + 50 x[8] + 31 x[9] + 20 x[10] + 28 x[11] + 69 x[12]
   + 57 x[13] + 41 x[14] + 89 x[15] + 82 x[16] + 77 x[17] + 50 x[18]
   + 91 x[19] + 54 x[20] + 76 x[21] + 21 x[22] + 43 x[23] + 29 x[24]
   + 17 x[25] + 15 x[26] + 12 x[27] + 50 x[28] + 16 x[29] + 50 x[30]
   + 68 x[31] + 12 x[32] + 66 x[33] + 49 x[34] + 10 x[35] + 69 x[36]
   + 45 x[37] + 5 x[38] + 87 x[39] + 72 x[40] + 98 x[41] + 7 x[42]
   + 90 x[43] + 48 x[44] + 55 x[45] + 6 x[46] + 90 x[47] + 24 x[48]
   + 53 x[49] + 19 x[50] + 97 x[51] + 94 x[52] + 65 x[53] + 65 x[54]
   + 20 x[55] + 2 x[56] + 23 x[57] + 45 x[58] + 19 x[59] + 69 x[60]
   + 43 x[61] + 24 x[62] + 71 x[63] + 80 x[64] + 9 x[65] + 77 x[66]
   + 23 x[67] + 77 x[68] + 26 x[69] + 66 x[70] + 70 x[71] + 39 x[72]
   + 96 x[73] + 100 x[74] + 61 x[75] + 43 x[76] + 24 x[77] + 85 x[78]
   + 15 x[79] + 58 x[80] + 78 x[81] + 7 x[82] + 70 x[83] + 54 x[84]
   + 18 x[85] + 60 x[86] + 81 x[87] + 19 x[88] + 48 x[89] + 4.4 r[0]
   + 2.9 r[1] + 0.7 r[2] + 3.2 r[3] + 5.3 r[4] + 0.6 r[5] + 3.8 r[6]
   + 2 r[7] + 5 r[8] + 3.1 r[9] + 2 r[10] + 2.8 r[11] + 6.9 r[12]
   + 5.7 r[13] + 4.1 r[14] + 8.9 r[15] + 8.2 r[16] + 7.7 r[17] + 5 r[18]
   + 9.1 r[19] + 5.4 r[20] + 7.6 r[21] + 2.1 r[22] + 4.3 r[23] + 2.9 r[24]
   + 1.7 r[25] + 1.5 r[26] + 1.2 r[27] + 5 r[28] + 1.6 r[29] + 5 r[30]
   + 6.8 r[31] + 1.2 r[32] + 6.6 r[33] + 4.9 r[34] + r[35] + 6.9 r[36]
   + 4.5 r[37] + 0.5 r[38] + 8.7 r[39] + 7.2 r[40] + 9.8 r[41] + 0.7 r[42]
   + 9 r[43] + 4.8 r[44] + 5.5 r[45] + 0.6 r[46] + 9 r[47] + 2.4 r[48]
   + 5.3 r[49] + 1.9 r[50] + 9.7 r[51] + 9.4 r[52] + 6.5 r[53] + 6.5 r[54]
   + 2 r[55] + 0.2 r[56] + 2.3 r[57] + 4.5 r[58] + 1.9 r[59] + 6.9 r[60]
   + 4.3 r[61] + 2.4 r[62] + 7.1 r[63] + 8 r[64] + 0.9 r[65] + 7.7 r[66]
   + 2.3 r[67] + 7.7 r[68] + 2.6 r[69] + 6.6 r[70] + 7 r[71] + 3.9 r[72]
   + 9.6 r[73] + 10 r[74] + 6.1 r[75] + 4.3 r[76] + 2.4 r[77] + 8.5 r[78]
   + 1.5 r[79] + 5.8 r[80] + 7.8 r[81] + 0.7 r[82] + 7 r[83] + 5.4 r[84]
   + 1.8 r[85] + 6 r[86] + 8.1 r[87] + 1.9 r[88] + 4.8 r[89] <= 408
 primal_lower: 3.321629744670081 x[0] + 2.689470211343559 x[1]
   + 4.855189747438049 x[2] + 4.718945553835946 x[3]
   + 1.309271566532147 x[4] + 1.252547222626622 x[5]
   + 3.366571790921402 x[6] + 2.703748619127069 x[7]
   + 1.638161075329147 x[8] + 4.341944348986584 x[9]
   + 4.258279948268379 x[10] + 2.446225182688945 x[11]
   + 2.45180782049589 x[12] + 3.861958267968512 x[13]
   + 3.013467486902107 x[14] + 0.9413237169628651 x[15]
   + 4.083459675741588 x[16] + 4.535709148135785 x[17]
   + 4.233469038753046 x[18] + 3.438976188482694 x[19]
   + 3.677991642101814 x[20] + 1.203387670385335 x[21]
   + 1.675028231463284 x[22] + 1.579684756475157 x[23]
   + 0.9257239527291045 x[24] + 2.263579125669843 x[25]
   + 0.2555524373504214 x[26] + 1.633335058297322 x[27]
   + 4.221532355603568 x[28] + 3.752422399211521 x[29]
   + 3.459479277758541 x[30] + 0.4518836044838336 x[31]
   + 2.435467881376985 x[32] + 0.2761582291217121 x[33]
   + 1.099079704351056 x[34] + 1.67543879765496 x[35]
   + 3.734382884575583 x[36] + 1.890585056213482 x[37]
   + 4.226388026811533 x[38] + 1.295087935608961 x[39]
   + 3.601513422354972 x[40] + 4.191376101974416 x[41]
   + 3.529309037692318 x[42] + 0.4853569299715866 x[43]
   + 2.012018728992651 x[44] + 2.26050551304894 x[45]
   + 1.6977552662419 x[46] + 0.3451163327797693 x[47]
   + 0.8450316841977638 x[48] + 2.048236744084173 x[49]
   + 2.159480170939487 x[50] + 4.638593283443918 x[51]
   + 0.0443784727630303 x[52] + 4.03894317877433 x[53]
   + 1.095367474696553 x[54] + 2.416672846418457 x[55]
   + 4.854849987738167 x[56] + 0.8063234876219342 x[57]
   + 4.506697647052158 x[58] + 4.120560970131025 x[59]
   + 2.129736894763237 x[60] + 4.127915783275477 x[61]
   + 1.453319745944794 x[62] + 3.082634070980516 x[63]
   + 4.838178494561128 x[64] + 4.785166733622977 x[65]
   + 0.7592746302072131 x[66] + 2.64367295589786 x[67]
   + 3.140652468564073 x[68] + 1.388735633504441 x[69]
   + 1.305844189695008 x[70] + 4.756054948033107 x[71]
   + 2.203241725668651 x[72] + 4.763841478146466 x[73]
   + 1.558830609279829 x[74] + 0.1844965343603003 x[75]
   + 3.263477688551797 x[76] + 2.368160898607225 x[77]
   + 2.2883542055212 x[78] + 2.627042017250333 x[79]
   + 1.432548843403434 x[80] + 3.09445191402621 x[81]
   + 4.36025325851692 x[82] + 1.478128421572174 x[83]
   + 2.358668809617658 x[84] + 2.410955593817055 x[85]
   + 1.690365365748551 x[86] + 2.992527499245513 x[87]
   + 0.0434638824227027 x[88] + 0.6455045386700037 x[89] + 39 u[0]
   + 100 u[1] + 42 u[2] + 19 u[3] + 16 u[4] + 85 u[5] + 29 u[6] + 19 u[7]
   + 61 u[8] + 62 u[9] + 91 u[10] + 79 u[11] + 88 u[12] + 68 u[13]
   + 88 u[14] + 92 u[15] + 89 u[16] + 96 u[17] + 53 u[18] + 86 u[19]
   + 17 u[20] + 83 u[21] + 72 u[22] + 18 u[23] + 12 u[24] + 52 u[25]
   + 50 u[26] + 35 u[27] + 77 u[28] + 79 u[29] + 89 u[30] + 35 u[31]
   + 51 u[32] + 29 u[33] + 24 u[34] + 13 u[35] + 80 u[36] + 28 u[37]
   + 36 u[38] + 74 u[39] + 47 u[40] + 89 u[41] + 58 u[42] + 97 u[43]
   + 71 u[44] + 82 u[45] + 57 u[46] + 49 u[47] + 15 u[48] + 96 u[49]
   + 26 u[50] + 32 u[51] + 57 u[52] + 16 u[53] + 8 u[54] + 19 u[55]
   + 49 u[56] + 26 u[57] + 24 u[58] + 46 u[59] + 56 u[60] + 82 u[61]
   + 7 u[62] + 90 u[63] + 19 u[64] + 44 u[65] + 92 u[66] + 46 u[67]
   + 80 u[68] + 29 u[69] + 9 u[70] + 85 u[71] + 90 u[72] + 71 u[73]
   + 39 u[74] + 80 u[75] + 90 u[76] + 87 u[77] + 32 u[78] + 18 u[79]
   + 33 u[80] + 29 u[81] + 18 u[82] + 89 u[83] + 25 u[84] + 9 u[85]
   + 23 u[86] + 84 u[87] + 62 u[88] + 11 u[89] <= 28269
 mccormick1[0]: - u[0] + r[0] <= 0
 mccormick1[1]: - u[1] + r[1] <= 0
 mccormick1[2]: - u[2] + r[2] <= 0
 mccormick1[3]: - u[3] + r[3] <= 0
 mccormick1[4]: - u[4] + r[4] <= 0
 mccormick1[5]: - u[5] + r[5] <= 0
 mccormick1[6]: - u[6] + r[6] <= 0
 mccormick1[7]: - u[7] + r[7] <= 0
 mccormick1[8]: - u[8] + r[8] <= 0
 mccormick1[9]: - u[9] + r[9] <= 0
 mccormick1[10]: - u[10] + r[10] <= 0
 mccormick1[11]: - u[11] + r[11] <= 0
 mccormick1[12]: - u[12] + r[12] <= 0
 mccormick1[13]: - u[13] + r[13] <= 0
 mccormick1[14]: - u[14] + r[14] <= 0
 mccormick1[15]: - u[15] + r[15] <= 0
 mccormick1[16]: - u[16] + r[16] <= 0
 mccormick1[17]: - u[17] + r[17] <= 0
 mccormick1[18]: - u[18] + r[18] <= 0
 mccormick1[19]: - u[19] + r[19] <= 0
 mccormick1[20]: - u[20] + r[20] <= 0
 mccormick1[21]: - u[21] + r[21] <= 0
 mccormick1[22]: - u[22] + r[22] <= 0
 mccormick1[23]: - u[23] + r[23] <= 0
 mccormick1[24]: - u[24] + r[24] <= 0
 mccormick1[25]: - u[25] + r[25] <= 0
 mccormick1[26]: - u[26] + r[26] <= 0
 mccormick1[27]: - u[27] + r[27] <= 0
 mccormick1[28]: - u[28] + r[28] <= 0
 mccormick1[29]: - u[29] + r[29] <= 0
 mccormick1[30]: - u[30] + r[30] <= 0
 mccormick1[31]: - u[31] + r[31] <= 0
 mccormick1[32]: - u[32] + r[32] <= 0
 mccormick1[33]: - u[33] + r[33] <= 0
 mccormick1[34]: - u[34] + r[34] <= 0
 mccormick1[35]: - u[35] + r[35] <= 0
 mccormick1[36]: - u[36] + r[36] <= 0
 mccormick1[37]: - u[37] + r[37] <= 0
 mccormick1[38]: - u[38] + r[38] <= 0
 mccormick1[39]: - u[39] + r[39] <= 0
 mccormick1[40]: - u[40] + r[40] <= 0
 mccormick1[41]: - u[41] + r[41] <= 0
 mccormick1[42]: - u[42] + r[42] <= 0
 mccormick1[43]: - u[43] + r[43] <= 0
 mccormick1[44]: - u[44] + r[44] <= 0
 mccormick1[45]: - u[45] + r[45] <= 0
 mccormick1[46]: - u[46] + r[46] <= 0
 mccormick1[47]: - u[47] + r[47] <= 0
 mccormick1[48]: - u[48] + r[48] <= 0
 mccormick1[49]: - u[49] + r[49] <= 0
 mccormick1[50]: - u[50] + r[50] <= 0
 mccormick1[51]: - u[51] + r[51] <= 0
 mccormick1[52]: - u[52] + r[52] <= 0
 mccormick1[53]: - u[53] + r[53] <= 0
 mccormick1[54]: - u[54] + r[54] <= 0
 mccormick1[55]: - u[55] + r[55] <= 0
 mccormick1[56]: - u[56] + r[56] <= 0
 mccormick1[57]: - u[57] + r[57] <= 0
 mccormick1[58]: - u[58] + r[58] <= 0
 mccormick1[59]: - u[59] + r[59] <= 0
 mccormick1[60]: - u[60] + r[60] <= 0
 mccormick1[61]: - u[61] + r[61] <= 0
 mccormick1[62]: - u[62] + r[62] <= 0
 mccormick1[63]: - u[63] + r[63] <= 0
 mccormick1[64]: - u[64] + r[64] <= 0
 mccormick1[65]: - u[65] + r[65] <= 0
 mccormick1[66]: - u[66] + r[66] <= 0
 mccormick1[67]: - u[67] + r[67] <= 0
 mccormick1[68]: - u[68] + r[68] <= 0
 mccormick1[69]: - u[69] + r[69] <= 0
 mccormick1[70]: - u[70] + r[70] <= 0
 mccormick1[71]: - u[71] + r[71] <= 0
 mccormick1[72]: - u[72] + r[72] <= 0
 mccormick1[73]: - u[73] + r[73] <= 0
 mccormick1[74]: - u[74] + r[74] <= 0
 mccormick1[75]: - u[75] + r[75] <= 0
 mccormick1[76]: - u[76] + r[76] <= 0
 mccormick1[77]: - u[77] + r[77] <= 0
 mccormick1[78]: - u[78] + r[78] <= 0
 mccormick1[79]: - u[79] + r[79] <= 0
 mccormick1[80]: - u[80] + r[80] <= 0
 mccormick1[81]: - u[81] + r[81] <= 0
 mccormick1[82]: - u[82] + r[82] <= 0
 mccormick1[83]: - u[83] + r[83] <= 0
 mccormick1[84]: - u[84] + r[84] <= 0
 mccormick1[85]: - u[85] + r[85] <= 0
 mccormick1[86]: - u[86] + r[86] <= 0
 mccormick1[87]: - u[87] + r[87] <= 0
 mccormick1[88]: - u[88] + r[88] <= 0
 mccormick1[89]: - u[89] + r[89] <= 0
 mccormick2[0]: - x[0] + r[0] <= 0
 mccormick2[1]: - x[1] + r[1] <= 0
 mccormick2[2]: - x[2] + r[2] <= 0
 mccormick2[3]: - x[3] + r[3] <= 0
 mccormick2[4]: - x[4] + r[4] <= 0
 mccormick2[5]: - x[5] + r[5] <= 0
 mccormick2[6]: - x[6] + r[6] <= 0
 mccormick2[7]: - x[7] + r[7] <= 0
 mccormick2[8]: - x[8] + r[8] <= 0
 mccormick2[9]: - x[9] + r[9] <= 0
 mccormick2[10]: - x[10] + r[10] <= 0
 mccormick2[11]: - x[11] + r[11] <= 0
 mccormick2[12]: - x[12] + r[12] <= 0
 mccormick2[13]: - x[13] + r[13] <= 0
 mccormick2[14]: - x[14] + r[14] <= 0
 mccormick2[15]: - x[15] + r[15] <= 0
 mccormick2[16]: - x[16] + r[16] <= 0
 mccormick2[17]: - x[17] + r[17] <= 0
 mccormick2[18]: - x[18] + r[18] <= 0
 mccormick2[19]: - x[19] + r[19] <= 0
 mccormick2[20]: - x[20] + r[20] <= 0
 mccormick2[21]: - x[21] + r[21] <= 0
 mccormick2[22]: - x[22] + r[22] <= 0
 mccormick2[23]: - x[23] + r[23] <= 0
 mccormick2[24]: - x[24] + r[24] <= 0
 mccormick2[25]: - x[25] + r[25] <= 0
 mccormick2[26]: - x[26] + r[26] <= 0
 mccormick2[27]: - x[27] + r[27] <= 0
 mccormick2[28]: - x[28] + r[28] <= 0
 mccormick2[29]: - x[29] + r[29] <= 0
 mccormick2[30]: - x[30] + r[30] <= 0
 mccormick2[31]: - x[31] + r[31] <= 0
 mccormick2[32]: - x[32] + r[32] <= 0
 mccormick2[33]: - x[33] + r[33] <= 0
 mccormick2[34]: - x[34] + r[34] <= 0
 mccormick2[35]: - x[35] + r[35] <= 0
 mccormick2[36]: - x[36] + r[36] <= 0
 mccormick2[37]: - x[37] + r[37] <= 0
 mccormick2[38]: - x[38] + r[38] <= 0
 mccormick2[39]: - x[39] + r[39] <= 0
 mccormick2[40]: - x[40] + r[40] <= 0
 mccormick2[41]: - x[41] + r[41] <= 0
 mccormick2[42]: - x[42] + r[42] <= 0
 mccormick2[43]: - x[43] + r[43] <= 0
 mccormick2[44]: - x[44] + r[44] <= 0
 mccormick2[45]: - x[45] + r[45] <= 0
 mccormick2[46]: - x[46] + r[46] <= 0
 mccormick2[47]: - x[47] + r[47] <= 0
 mccormick2[48]: - x[48] + r[48] <= 0
 mccormick2[49]: - x[49] + r[49] <= 0
 mccormick2[50]: - x[50] + r[50] <= 0
 mccormick2[51]: - x[51] + r[51] <= 0
 mccormick2[52]: - x[52] + r[52] <= 0
 mccormick2[53]: - x[53] + r[53] <= 0
 mccormick2[54]: - x[54] + r[54] <= 0
 mccormick2[55]: - x[55] + r[55] <= 0
 mccormick2[56]: - x[56] + r[56] <= 0
 mccormick2[57]: - x[57] + r[57] <= 0
 mccormick2[58]: - x[58] + r[58] <= 0
 mccormick2[59]: - x[59] + r[59] <= 0
 mccormick2[60]: - x[60] + r[60] <= 0
 mccormick2[61]: - x[61] + r[61] <= 0
 mccormick2[62]: - x[62] + r[62] <= 0
 mccormick2[63]: - x[63] + r[63] <= 0
 mccormick2[64]: - x[64] + r[64] <= 0
 mccormick2[65]: - x[65] + r[65] <= 0
 mccormick2[66]: - x[66] + r[66] <= 0
 mccormick2[67]: - x[67] + r[67] <= 0
 mccormick2[68]: - x[68] + r[68] <= 0
 mccormick2[69]: - x[69] + r[69] <= 0
 mccormick2[70]: - x[70] + r[70] <= 0
 mccormick2[71]: - x[71] + r[71] <= 0
 mccormick2[72]: - x[72] + r[72] <= 0
 mccormick2[73]: - x[73] + r[73] <= 0
 mccormick2[74]: - x[74] + r[74] <= 0
 mccormick2[75]: - x[75] + r[75] <= 0
 mccormick2[76]: - x[76] + r[76] <= 0
 mccormick2[77]: - x[77] + r[77] <= 0
 mccormick2[78]: - x[78] + r[78] <= 0
 mccormick2[79]: - x[79] + r[79] <= 0
 mccormick2[80]: - x[80] + r[80] <= 0
 mccormick2[81]: - x[81] + r[81] <= 0
 mccormick2[82]: - x[82] + r[82] <= 0
 mccormick2[83]: - x[83] + r[83] <= 0
 mccormick2[84]: - x[84] + r[84] <= 0
 mccormick2[85]: - x[85] + r[85] <= 0
 mccormick2[86]: - x[86] + r[86] <= 0
 mccormick2[87]: - x[87] + r[87] <= 0
 mccormick2[88]: - x[88] + r[88] <= 0
 mccormick2[89]: - x[89] + r[89] <= 0
 mccormick3[0]: x[0] + u[0] - r[0] <= 1
 mccormick3[1]: x[1] + u[1] - r[1] <= 1
 mccormick3[2]: x[2] + u[2] - r[2] <= 1
 mccormick3[3]: x[3] + u[3] - r[3] <= 1
 mccormick3[4]: x[4] + u[4] - r[4] <= 1
 mccormick3[5]: x[5] + u[5] - r[5] <= 1
 mccormick3[6]: x[6] + u[6] - r[6] <= 1
 mccormick3[7]: x[7] + u[7] - r[7] <= 1
 mccormick3[8]: x[8] + u[8] - r[8] <= 1
 mccormick3[9]: x[9] + u[9] - r[9] <= 1
 mccormick3[10]: x[10] + u[10] - r[10] <= 1
 mccormick3[11]: x[11] + u[11] - r[11] <= 1
 mccormick3[12]: x[12] + u[12] - r[12] <= 1
 mccormick3[13]: x[13] + u[13] - r[13] <= 1
 mccormick3[14]: x[14] + u[14] - r[14] <= 1
 mccormick3[15]: x[15] + u[15] - r[15] <= 1
 mccormick3[16]: x[16] + u[16] - r[16] <= 1
 mccormick3[17]: x[17] + u[17] - r[17] <= 1
 mccormick3[18]: x[18] + u[18] - r[18] <= 1
 mccormick3[19]: x[19] + u[19] - r[19] <= 1
 mccormick3[20]: x[20] + u[20] - r[20] <= 1
 mccormick3[21]: x[21] + u[21] - r[21] <= 1
 mccormick3[22]: x[22] + u[22] - r[22] <= 1
 mccormick3[23]: x[23] + u[23] - r[23] <= 1
 mccormick3[24]: x[24] + u[24] - r[24] <= 1
 mccormick3[25]: x[25] + u[25] - r[25] <= 1
 mccormick3[26]: x[26] + u[26] - r[26] <= 1
 mccormick3[27]: x[27] + u[27] - r[27] <= 1
 mccormick3[28]: x[28] + u[28] - r[28] <= 1
 mccormick3[29]: x[29] + u[29] - r[29] <= 1
 mccormick3[30]: x[30] + u[30] - r[30] <= 1
 mccormick3[31]: x[31] + u[31] - r[31] <= 1
 mccormick3[32]: x[32] + u[32] - r[32] <= 1
 mccormick3[33]: x[33] + u[33] - r[33] <= 1
 mccormick3[34]: x[34] + u[34] - r[34] <= 1
 mccormick3[35]: x[35] + u[35] - r[35] <= 1
 mccormick3[36]: x[36] + u[36] - r[36] <= 1
 mccormick3[37]: x[37] + u[37] - r[37] <= 1
 mccormick3[38]: x[38] + u[38] - r[38] <= 1
 mccormick3[39]: x[39] + u[39] - r[39] <= 1
 mccormick3[40]: x[40] + u[40] - r[40] <= 1
 mccormick3[41]: x[41] + u[41] - r[41] <= 1
 mccormick3[42]: x[42] + u[42] - r[42] <= 1
 mccormick3[43]: x[43] + u[43] - r[43] <= 1
 mccormick3[44]: x[44] + u[44] - r[44] <= 1
 mccormick3[45]: x[45] + u[45] - r[45] <= 1
 mccormick3[46]: x[46] + u[46] - r[46] <= 1
 mccormick3[47]: x[47] + u[47] - r[47] <= 1
 mccormick3[48]: x[48] + u[48] - r[48] <= 1
 mccormick3[49]: x[49] + u[49] - r[49] <= 1
 mccormick3[50]: x[50] + u[50] - r[50] <= 1
 mccormick3[51]: x[51] + u[51] - r[51] <= 1
 mccormick3[52]: x[52] + u[52] - r[52] <= 1
 mccormick3[53]: x[53] + u[53] - r[53] <= 1
 mccormick3[54]: x[54] + u[54] - r[54] <= 1
 mccormick3[55]: x[55] + u[55] - r[55] <= 1
 mccormick3[56]: x[56] + u[56] - r[56] <= 1
 mccormick3[57]: x[57] + u[57] - r[57] <= 1
 mccormick3[58]: x[58] + u[58] - r[58] <= 1
 mccormick3[59]: x[59] + u[59] - r[59] <= 1
 mccormick3[60]: x[60] + u[60] - r[60] <= 1
 mccormick3[61]: x[61] + u[61] - r[61] <= 1
 mccormick3[62]: x[62] + u[62] - r[62] <= 1
 mccormick3[63]: x[63] + u[63] - r[63] <= 1
 mccormick3[64]: x[64] + u[64] - r[64] <= 1
 mccormick3[65]: x[65] + u[65] - r[65] <= 1
 mccormick3[66]: x[66] + u[66] - r[66] <= 1
 mccormick3[67]: x[67] + u[67] - r[67] <= 1
 mccormick3[68]: x[68] + u[68] - r[68] <= 1
 mccormick3[69]: x[69] + u[69] - r[69] <= 1
 mccormick3[70]: x[70] + u[70] - r[70] <= 1
 mccormick3[71]: x[71] + u[71] - r[71] <= 1
 mccormick3[72]: x[72] + u[72] - r[72] <= 1
 mccormick3[73]: x[73] + u[73] - r[73] <= 1
 mccormick3[74]: x[74] + u[74] - r[74] <= 1
 mccormick3[75]: x[75] + u[75] - r[75] <= 1
 mccormick3[76]: x[76] + u[76] - r[76] <= 1
 mccormick3[77]: x[77] + u[77] - r[77] <= 1
 mccormick3[78]: x[78] + u[78] - r[78] <= 1
 mccormick3[79]: x[79] + u[79] - r[79] <= 1
 mccormick3[80]: x[80] + u[80] - r[80] <= 1
 mccormick3[81]: x[81] + u[81] - r[81] <= 1
 mccormick3[82]: x[82] + u[82] - r[82] <= 1
 mccormick3[83]: x[83] + u[83] - r[83] <= 1
 mccormick3[84]: x[84] + u[84] - r[84] <= 1
 mccormick3[85]: x[85] + u[85] - r[85] <= 1
 mccormick3[86]: x[86] + u[86] - r[86] <= 1
 mccormick3[87]: x[87] + u[87] - r[87] <= 1
 mccormick3[88]: x[88] + u[88] - r[88] <= 1
 mccormick3[89]: x[89] + u[89] - r[89] <= 1
Bounds
Binaries
 x[0] x[1] x[2] x[3] x[4] x[5] x[6] x[7] x[8] x[9] x[10] x[11] x[12] x[13]
 x[14] x[15] x[16] x[17] x[18] x[19] x[20] x[21] x[22] x[23] x[24] x[25]
 x[26] x[27] x[28] x[29] x[30] x[31] x[32] x[33] x[34] x[35] x[36] x[37]
 x[38] x[39] x[40] x[41] x[42] x[43] x[44] x[45] x[46] x[47] x[48] x[49]
 x[50] x[51] x[52] x[53] x[54] x[55] x[56] x[57] x[58] x[59] x[60] x[61]
 x[62] x[63] x[64] x[65] x[66] x[67] x[68] x[69] x[70] x[71] x[72] x[73]
 x[74] x[75] x[76] x[77] x[78] x[79] x[80] x[81] x[82] x[83] x[84] x[85]
 x[86] x[87] x[88] x[89] u[0] u[1] u[2] u[3] u[4] u[5] u[6] u[7] u[8] u[9]
 u[10] u[11] u[12] u[13] u[14] u[15] u[16] u[17] u[18] u[19] u[20] u[21]
 u[22] u[23] u[24] u[25] u[26] u[27] u[28] u[29] u[30] u[31] u[32] u[33]
 u[34] u[35] u[36] u[37] u[38] u[39] u[40] u[41] u[42] u[43] u[44] u[45]
 u[46] u[47] u[48] u[49] u[50] u[51] u[52] u[53] u[54] u[55] u[56] u[57]
 u[58] u[59] u[60] u[61] u[62] u[63] u[64] u[65] u[66] u[67] u[68] u[69]
 u[70] u[71] u[72] u[73] u[74] u[75] u[76] u[77] u[78] u[79] u[80] u[81]
 u[82] u[83] u[84] u[85] u[86] u[87] u[88] u[89] r[0] r[1] r[2] r[3] r[4]
 r[5] r[6] r[7] r[8] r[9] r[10] r[11] r[12] r[13] r[14] r[15] r[16] r[17]
 r[18] r[19] r[20] r[21] r[22] r[23] r[24] r[25] r[26] r[27] r[28] r[29]
 r[30] r[31] r[32] r[33] r[34] r[35] r[36] r[37] r[38] r[39] r[40] r[41]
 r[42] r[43] r[44] r[45] r[46] r[47] r[48] r[49] r[50] r[51] r[52] r[53]
 r[54] r[55] r[56] r[57] r[58] r[59] r[60] r[61] r[62] r[63] r[64] r[65]
 r[66] r[67] r[68] r[69] r[70] r[71] r[72] r[73] r[74] r[75] r[76] r[77]
 r[78] r[79] r[80] r[81] r[82] r[83] r[84] r[85] r[86] r[87] r[88] r[89]
End
