instances/knapsack/discrete_knapsack_uncertainty/knapsack_90_16.kp
86599
90
408

44 4.4 37
29 2.9 37
7 0.7 91
32 3.2 7
53 5.3 60
6 0.6 8
38 3.8 40
20 2.0 86
50 5.0 25
31 3.1 5
20 2.0 70
28 2.8 86
69 6.9 82
57 5.7 81
41 4.1 18
89 8.9 95
82 8.2 77
77 7.7 41
50 5.0 49
91 9.1 64
54 5.4 52
76 7.6 70
21 2.1 27
43 4.3 51
29 2.9 48
17 1.7 33
15 1.5 79
12 1.2 70
50 5.0 81
16 1.6 55
50 5.0 60
68 6.8 87
12 1.2 87
66 6.6 34
49 4.9 58
10 1.0 76
69 6.9 24
45 4.5 38
5 0.5 17
87 8.7 34
72 7.2 39
98 9.8 96
7 0.7 24
90 9.0 82
48 4.8 45
55 5.5 74
6 0.6 27
90 9.0 3
24 2.4 95
53 5.3 32
19 1.9 10
97 9.7 9
94 9.4 22
65 6.5 40
65 6.5 51
20 2.0 65
2 0.2 13
23 2.3 23
45 4.5 19
19 1.9 38
69 6.9 79
43 4.3 81
24 2.4 100
71 7.1 56
80 8.0 21
9 0.9 24
77 7.7 48
23 2.3 92
77 7.7 91
26 2.6 52
66 6.6 48
70 7.0 70
39 3.9 28
96 9.6 44
100 10.0 37
61 6.1 41
43 4.3 89
24 2.4 8
85 8.5 15
15 1.5 26
58 5.8 50
78 7.8 73
7 0.7 40
70 7.0 17
54 5.4 64
18 1.8 27
60 6.0 45
81 8.1 18
19 1.9 67
48 4.8 93

28269
452

[3.3216297446700813 2.689470211343559 4.8551897474380485 4.718945553835946 1.309271566532147 1.2525472226266217 3.366571790921402 2.7037486191270688 1.6381610753291467 4.341944348986584 4.258279948268379 2.446225182688945 2.4518078204958895 3.8619582679685123 3.0134674869021074 0.9413237169628651 4.0834596757415875 4.535709148135785 4.233469038753046 3.438976188482694 3.6779916421018135 1.2033876703853355 1.6750282314632836 1.5796847564751568 0.9257239527291045 2.2635791256698425 0.25555243735042144 1.6333350582973223 4.221532355603568 3.752422399211521 3.4594792777585406 0.45188360448383363 2.435467881376985 0.2761582291217121 1.0990797043510563 1.67543879765496 3.7343828845755827 1.8905850562134818 4.226388026811533 1.2950879356089608 3.6015134223549716 4.1913761019744165 3.5293090376923177 0.4853569299715866 2.0120187289926514 2.26050551304894 1.6977552662418998 0.34511633277976933 0.8450316841977638 2.0482367440841727 2.159480170939487 4.638593283443918 0.04437847276303032 4.03894317877433 1.0953674746965534 2.4166728464184573 4.854849987738167 0.8063234876219342 4.506697647052158 4.120560970131025 2.129736894763237 4.127915783275477 1.4533197459447942 3.0826340709805162 4.838178494561128 4.785166733622977 0.7592746302072131 2.6436729558978604 3.140652468564073 1.3887356335044412 1.305844189695008 4.756054948033107 2.2032417256686507 4.763841478146466 1.5588306092798287 0.18449653436030028 3.263477688551797 2.3681608986072247 2.2883542055211996 2.6270420172503335 1.432548843403434 3.09445191402621 4.36025325851692 1.4781284215721742 2.358668809617658 2.410955593817055 1.6903653657485513 2.9925274992455133 0.04346388242270273 0.6455045386700037]

[39 100 42 19 16 85 29 19 61 62 91 79 88 68 88 92 89 96 53 86 17 83 72 18 12 52 50 35 77 79 89 35 51 29 24 13 80 28 36 74 47 89 58 97 71 82 57 49 15 96 26 32 57 16 8 19 49 26 24 46 56 82 7 90 19 44 92 46 80 29 9 85 90 71 39 80 90 87 32 18 33 29 18 89 25 9 23 84 62 11]
